(set-logic QF_S)
(declare-fun var_0xINPUT_129955 () String)
(assert (and (= (len var_0xINPUT_129955) 0) (= (len var_0xINPUT_129955) 0) (not (= var_0xINPUT_129955 "Example:")) (not (= var_0xINPUT_129955 "AA1ND6MEXd"))))
(check-sat var_0xINPUT_129955)